NAME: map6_180
TYPE: TSP
COMMENT: autogenerated using a wonderful map creator
DIMENSION: 210
EDGE_WEIGHT_TYPE: EUC_2D
NODE_COORD_SECTION
1 21.0 52.0
2 22.0 52.0
3 23.0 52.0
4 21.0 54.0
5 22.0 54.0
6 23.0 54.0
7 22.0 11.0
8 22.0 10.0
9 75.0 8.0
10 74.0 8.0
11 67.0 37.0
12 67.0 38.0
13 67.0 39.0
14 67.0 40.0
15 67.0 41.0
16 24.0 52.0
17 25.0 52.0
18 24.0 54.0
19 25.0 54.0
20 22.0 9.0
21 22.0 8.0
22 22.0 7.0
23 73.0 8.0
24 72.0 8.0
25 71.0 8.0
26 67.0 42.0
27 67.0 43.0
28 67.0 44.0
29 67.0 45.0
30 67.0 46.0
31 21.0 51.0
32 22.0 51.0
33 23.0 51.0
34 21.0 55.0
35 22.0 55.0
36 23.0 55.0
37 23.0 11.0
38 23.0 10.0
39 75.0 9.0
40 74.0 9.0
41 66.0 37.0
42 66.0 38.0
43 66.0 39.0
44 66.0 40.0
45 66.0 41.0
46 24.0 51.0
47 25.0 51.0
48 24.0 55.0
49 25.0 55.0
50 23.0 9.0
51 23.0 8.0
52 23.0 7.0
53 73.0 9.0
54 72.0 9.0
55 71.0 9.0
56 66.0 42.0
57 66.0 43.0
58 66.0 44.0
59 66.0 45.0
60 66.0 46.0
61 38.0 23.0
62 55.0 2.0
63 72.0 27.0
64 56.0 10.0
65 53.0 23.0
66 54.0 22.0
67 54.0 40.0
68 5.0 19.0
69 66.0 14.0
70 33.0 20.0
71 44.0 20.0
72 33.0 29.0
73 26.0 23.0
74 55.0 4.0
75 56.0 3.0
76 52.0 51.0
77 53.0 16.0
78 55.0 13.0
79 11.0 44.0
80 64.0 25.0
81 42.0 59.0
82 57.0 50.0
83 22.0 28.0
84 40.0 43.0
85 14.0 24.0
86 58.0 24.0
87 14.0 42.0
88 52.0 26.0
89 12.0 54.0
90 10.0 20.0
91 58.0 51.0
92 25.0 27.0
93 45.0 60.0
94 7.0 21.0
95 16.0 24.0
96 55.0 15.0
97 57.0 34.0
98 9.0 49.0
99 53.0 27.0
100 20.0 24.0
101 38.0 39.0
102 58.0 17.0
103 54.0 44.0
104 38.0 57.0
105 40.0 54.0
106 6.0 52.0
107 14.0 44.0
108 8.0 25.0
109 53.0 57.0
110 4.0 52.0
111 35.0 30.0
112 8.0 43.0
113 54.0 10.0
114 29.0 20.0
115 57.0 45.0
116 12.0 22.0
117 13.0 51.0
118 69.0 28.0
119 61.0 24.0
120 14.0 37.0
121 58.0 37.0
122 24.0 23.0
123 54.0 58.0
124 35.0 32.0
125 62.0 16.0
126 34.0 18.0
127 21.0 18.0
128 58.0 3.0
129 78.0 15.0
130 20.0 28.0
131 12.0 24.0
132 48.0 53.0
133 4.0 20.0
134 70.0 29.0
135 27.0 24.0
136 43.0 20.0
137 53.0 52.0
138 42.0 31.0
139 35.0 25.0
140 18.0 18.0
141 59.0 56.0
142 56.0 11.0
143 11.0 43.0
144 38.0 27.0
145 60.0 57.0
146 20.0 21.0
147 54.0 23.0
148 69.0 14.0
149 11.0 61.0
150 38.0 45.0
151 14.0 23.0
152 67.0 26.0
153 59.0 31.0
154 30.0 22.0
155 45.0 50.0
156 44.0 30.0
157 3.0 53.0
158 5.0 50.0
159 38.0 20.0
160 31.0 23.0
161 38.0 38.0
162 55.0 26.0
163 44.0 60.0
164 56.0 34.0
165 56.0 43.0
166 66.0 29.0
167 54.0 9.0
168 3.0 55.0
169 9.0 50.0
170 60.0 61.0
171 21.0 24.0
172 12.0 21.0
173 38.0 40.0
174 55.0 19.0
175 12.0 30.0
176 36.0 24.0
177 53.0 40.0
178 37.0 32.0
179 5.0 27.0
180 42.0 28.0
181 65.0 14.0
182 62.0 6.0
183 11.0 22.0
184 2.0 19.0
185 57.0 19.0
186 11.0 40.0
187 29.0 21.0
188 11.0 49.0
189 38.0 33.0
190 42.0 58.0
191 4.0 19.0
192 13.0 52.0
193 53.0 33.0
194 45.0 29.0
195 36.0 26.0
196 61.0 25.0
197 8.0 28.0
198 57.0 12.0
199 54.0 59.0
200 68.0 21.0
201 64.0 26.0
202 4.0 21.0
203 54.0 34.0
204 36.0 28.0
205 17.0 24.0
206 57.0 5.0
207 53.0 53.0
208 66.0 17.0
209 32.0 24.0
210 60.0 40.0
211 5.0 58.0
212 6.0 23.0
213 29.0 25.0
214 13.0 38.0
215 8.0 51.0
216 39.0 29.0
217 27.0 27.0
218 37.0 29.0
219 30.0 23.0
220 76.0 20.0
221 37.0 38.0
222 14.0 36.0
223 52.0 29.0
224 12.0 57.0
225 38.0 21.0
226 72.0 16.0
227 6.0 25.0
228 71.0 27.0
229 41.0 56.0
230 44.0 52.0
231 10.0 59.0
232 37.0 22.0
233 54.0 38.0
234 39.0 49.0
235 69.0 29.0
236 57.0 9.0
237 39.0 58.0
238 60.0 26.0
239 57.0 18.0
240 57.0 27.0
START_DEPOT_SECTION
1
2
3
4
5
6
7
8
9
10
11
12
13
14
15
16
17
18
19
20
21
22
23
24
25
26
27
28
29
30
-1
END_DEPOT_SECTION
31
32
33
34
35
36
37
38
39
40
41
42
43
44
45
46
47
48
49
50
51
52
53
54
55
56
57
58
59
60
-1
EOF
